NAME = AISearchfile180,
TOURSIZE = 180,
LENGTH = 2050,
111,2,53,8,140,166,157,127,170,28,154,14,82,9,87,18,148,108,13,56,179,41,123,21,97,107,5,136,125,63,109,6,158,29,162,68,32,156,122,27,70,61,51,161,81,7,114,171,91,85,3,116,174,39,146,47,152,115,100,49,177,76,168,113,132,142,50,62,71,128,119,163,15,150,1,141,110,153,102,96,79,92,69,26,75,112,160,31,159,12,11,149,145,46,59,35,64,42,144,120,101,117,104,133,118,65,45,172,176,88,93,73,129,134,143,89,105,30,151,98,165,17,67,178,147,167,10,58,57,43,103,155,121,84,38,78,80,137,72,77,130,52,139,180,126,83,99,138,33,37,20,86,60,55,124,95,66,19,23,34,25,131,24,106,48,54,169,40,173,164,135,74,16,44,22,90,94,4,175,36
